c FILE: i160-145

c SOURCE: From steinlib

c DESCRIPTION: Steinlib instance with 160 nodes and 2544 edges.

p edge 160 2544
e 1 2
e 1 5
e 1 6
e 1 18
e 1 20
e 1 21
e 1 22
e 1 27
e 1 32
e 1 41
e 1 43
e 1 48
e 1 57
e 1 58
e 1 60
e 1 63
e 1 65
e 1 67
e 1 74
e 1 79
e 1 80
e 1 82
e 1 84
e 1 92
e 1 96
e 1 106
e 1 115
e 1 116
e 1 126
e 1 132
e 1 138
e 1 146
e 1 150
e 1 158
e 1 160
e 2 6
e 2 15
e 2 17
e 2 24
e 2 31
e 2 41
e 2 43
e 2 50
e 2 55
e 2 67
e 2 69
e 2 70
e 2 73
e 2 74
e 2 75
e 2 76
e 2 77
e 2 81
e 2 91
e 2 102
e 2 103
e 2 111
e 2 120
e 2 129
e 2 138
e 2 143
e 2 148
e 2 149
e 2 155
e 3 6
e 3 8
e 3 12
e 3 23
e 3 24
e 3 25
e 3 33
e 3 46
e 3 47
e 3 53
e 3 54
e 3 63
e 3 65
e 3 67
e 3 76
e 3 81
e 3 83
e 3 86
e 3 87
e 3 97
e 3 111
e 3 112
e 3 125
e 3 129
e 3 131
e 3 138
e 3 144
e 3 147
e 3 149
e 3 152
e 3 153
e 3 158
e 4 14
e 4 22
e 4 38
e 4 49
e 4 63
e 4 64
e 4 69
e 4 71
e 4 72
e 4 84
e 4 88
e 4 92
e 4 102
e 4 112
e 4 122
e 4 130
e 4 132
e 4 149
e 4 150
e 4 158
e 5 15
e 5 26
e 5 27
e 5 29
e 5 41
e 5 48
e 5 53
e 5 55
e 5 60
e 5 77
e 5 81
e 5 87
e 5 96
e 5 99
e 5 102
e 5 112
e 5 114
e 5 118
e 5 120
e 5 124
e 5 132
e 5 139
e 5 142
e 5 145
e 5 152
e 5 160
e 6 7
e 6 9
e 6 13
e 6 15
e 6 16
e 6 17
e 6 19
e 6 24
e 6 28
e 6 32
e 6 38
e 6 46
e 6 48
e 6 49
e 6 51
e 6 56
e 6 57
e 6 59
e 6 61
e 6 62
e 6 63
e 6 64
e 6 65
e 6 68
e 6 70
e 6 74
e 6 79
e 6 88
e 6 95
e 6 97
e 6 98
e 6 100
e 6 104
e 6 129
e 6 130
e 6 134
e 6 150
e 6 151
e 6 152
e 6 153
e 6 154
e 6 157
e 6 159
e 7 12
e 7 14
e 7 15
e 7 19
e 7 21
e 7 24
e 7 29
e 7 31
e 7 34
e 7 39
e 7 46
e 7 54
e 7 58
e 7 60
e 7 65
e 7 66
e 7 67
e 7 71
e 7 77
e 7 78
e 7 82
e 7 95
e 7 102
e 7 105
e 7 107
e 7 108
e 7 115
e 7 117
e 7 124
e 7 127
e 7 129
e 7 138
e 7 139
e 7 140
e 7 146
e 7 148
e 7 151
e 7 157
e 7 158
e 8 11
e 8 12
e 8 14
e 8 20
e 8 23
e 8 30
e 8 35
e 8 38
e 8 44
e 8 53
e 8 62
e 8 63
e 8 65
e 8 68
e 8 79
e 8 82
e 8 91
e 8 110
e 8 113
e 8 114
e 8 116
e 8 120
e 8 121
e 8 153
e 8 158
e 9 11
e 9 22
e 9 52
e 9 53
e 9 55
e 9 59
e 9 71
e 9 85
e 9 89
e 9 96
e 9 104
e 9 106
e 9 108
e 9 113
e 9 117
e 9 118
e 9 123
e 9 125
e 9 133
e 9 134
e 9 152
e 9 154
e 9 157
e 10 14
e 10 25
e 10 27
e 10 29
e 10 31
e 10 34
e 10 35
e 10 37
e 10 49
e 10 59
e 10 64
e 10 71
e 10 76
e 10 78
e 10 80
e 10 84
e 10 85
e 10 100
e 10 101
e 10 108
e 10 116
e 10 117
e 10 118
e 10 124
e 10 129
e 10 137
e 10 139
e 10 142
e 10 145
e 10 148
e 11 12
e 11 18
e 11 19
e 11 20
e 11 25
e 11 36
e 11 38
e 11 39
e 11 42
e 11 43
e 11 49
e 11 50
e 11 53
e 11 56
e 11 59
e 11 75
e 11 79
e 11 80
e 11 83
e 11 84
e 11 85
e 11 86
e 11 93
e 11 94
e 11 96
e 11 98
e 11 101
e 11 103
e 11 107
e 11 115
e 11 126
e 11 128
e 11 132
e 11 133
e 11 137
e 11 141
e 11 156
e 11 160
e 12 19
e 12 20
e 12 22
e 12 24
e 12 26
e 12 27
e 12 37
e 12 39
e 12 47
e 12 52
e 12 55
e 12 58
e 12 61
e 12 63
e 12 64
e 12 68
e 12 75
e 12 76
e 12 79
e 12 85
e 12 89
e 12 92
e 12 93
e 12 94
e 12 99
e 12 101
e 12 102
e 12 103
e 12 112
e 12 113
e 12 117
e 12 137
e 12 143
e 12 147
e 12 160
e 13 17
e 13 22
e 13 25
e 13 27
e 13 37
e 13 38
e 13 39
e 13 43
e 13 46
e 13 50
e 13 55
e 13 59
e 13 66
e 13 67
e 13 77
e 13 79
e 13 80
e 13 87
e 13 94
e 13 102
e 13 113
e 13 119
e 13 127
e 13 138
e 13 142
e 13 144
e 13 148
e 13 159
e 14 19
e 14 22
e 14 23
e 14 44
e 14 52
e 14 59
e 14 60
e 14 63
e 14 66
e 14 75
e 14 76
e 14 87
e 14 93
e 14 100
e 14 104
e 14 110
e 14 112
e 14 115
e 14 130
e 14 131
e 14 156
e 14 158
e 15 20
e 15 21
e 15 29
e 15 31
e 15 34
e 15 35
e 15 39
e 15 41
e 15 42
e 15 47
e 15 57
e 15 65
e 15 67
e 15 73
e 15 75
e 15 79
e 15 84
e 15 86
e 15 102
e 15 105
e 15 107
e 15 115
e 15 116
e 15 133
e 15 145
e 15 149
e 15 152
e 15 153
e 16 20
e 16 21
e 16 22
e 16 30
e 16 32
e 16 34
e 16 36
e 16 37
e 16 41
e 16 50
e 16 52
e 16 53
e 16 56
e 16 62
e 16 63
e 16 72
e 16 84
e 16 89
e 16 100
e 16 106
e 16 129
e 16 134
e 16 135
e 16 137
e 16 141
e 16 157
e 17 30
e 17 34
e 17 37
e 17 38
e 17 41
e 17 44
e 17 45
e 17 47
e 17 50
e 17 51
e 17 52
e 17 53
e 17 54
e 17 66
e 17 77
e 17 81
e 17 91
e 17 94
e 17 95
e 17 101
e 17 106
e 17 114
e 17 118
e 17 120
e 17 121
e 17 122
e 17 123
e 17 131
e 17 134
e 17 136
e 17 140
e 17 144
e 17 145
e 17 147
e 17 148
e 17 159
e 17 160
e 18 20
e 18 25
e 18 31
e 18 32
e 18 35
e 18 39
e 18 63
e 18 64
e 18 65
e 18 67
e 18 73
e 18 83
e 18 84
e 18 86
e 18 87
e 18 90
e 18 93
e 18 97
e 18 100
e 18 105
e 18 106
e 18 107
e 18 115
e 18 118
e 18 125
e 18 127
e 18 128
e 18 138
e 18 141
e 18 144
e 18 151
e 18 156
e 18 158
e 18 159
e 19 20
e 19 24
e 19 31
e 19 32
e 19 52
e 19 59
e 19 62
e 19 64
e 19 67
e 19 78
e 19 89
e 19 91
e 19 99
e 19 100
e 19 110
e 19 114
e 19 116
e 19 118
e 19 119
e 19 120
e 19 121
e 19 125
e 19 130
e 19 136
e 19 148
e 20 21
e 20 28
e 20 32
e 20 35
e 20 39
e 20 46
e 20 47
e 20 52
e 20 56
e 20 63
e 20 68
e 20 77
e 20 79
e 20 83
e 20 85
e 20 86
e 20 87
e 20 91
e 20 96
e 20 103
e 20 104
e 20 106
e 20 107
e 20 112
e 20 115
e 20 116
e 20 122
e 20 129
e 20 134
e 20 137
e 20 138
e 20 139
e 20 143
e 20 147
e 20 153
e 20 158
e 21 22
e 21 23
e 21 28
e 21 30
e 21 36
e 21 42
e 21 43
e 21 66
e 21 69
e 21 75
e 21 78
e 21 89
e 21 92
e 21 93
e 21 98
e 21 99
e 21 106
e 21 120
e 21 126
e 21 129
e 21 137
e 21 138
e 21 147
e 21 150
e 21 151
e 22 26
e 22 49
e 22 52
e 22 77
e 22 78
e 22 82
e 22 87
e 22 89
e 22 91
e 22 103
e 22 105
e 22 106
e 22 109
e 22 110
e 22 112
e 22 120
e 22 124
e 22 159
e 22 160
e 23 25
e 23 43
e 23 44
e 23 45
e 23 46
e 23 48
e 23 56
e 23 58
e 23 64
e 23 65
e 23 68
e 23 69
e 23 72
e 23 77
e 23 89
e 23 94
e 23 95
e 23 126
e 23 127
e 23 130
e 23 135
e 23 136
e 23 139
e 23 144
e 23 149
e 23 155
e 24 29
e 24 32
e 24 37
e 24 41
e 24 42
e 24 45
e 24 53
e 24 61
e 24 64
e 24 67
e 24 69
e 24 80
e 24 84
e 24 87
e 24 89
e 24 93
e 24 94
e 24 95
e 24 98
e 24 103
e 24 109
e 24 111
e 24 112
e 24 125
e 24 130
e 24 135
e 24 138
e 24 143
e 24 144
e 24 145
e 24 149
e 24 150
e 24 158
e 25 34
e 25 36
e 25 38
e 25 43
e 25 46
e 25 49
e 25 51
e 25 52
e 25 58
e 25 62
e 25 69
e 25 70
e 25 78
e 25 89
e 25 92
e 25 96
e 25 98
e 25 107
e 25 108
e 25 117
e 25 123
e 25 125
e 25 127
e 25 134
e 25 135
e 25 139
e 25 144
e 26 27
e 26 36
e 26 52
e 26 53
e 26 58
e 26 73
e 26 84
e 26 91
e 26 99
e 26 107
e 26 114
e 26 116
e 26 118
e 26 121
e 26 125
e 26 128
e 26 131
e 26 136
e 26 138
e 26 147
e 26 153
e 26 158
e 26 159
e 27 32
e 27 34
e 27 37
e 27 43
e 27 44
e 27 49
e 27 60
e 27 71
e 27 77
e 27 85
e 27 86
e 27 88
e 27 90
e 27 104
e 27 107
e 27 110
e 27 119
e 27 123
e 27 128
e 27 131
e 27 133
e 27 134
e 27 137
e 27 139
e 27 147
e 27 156
e 27 158
e 28 34
e 28 36
e 28 44
e 28 61
e 28 66
e 28 67
e 28 69
e 28 78
e 28 79
e 28 87
e 28 96
e 28 104
e 28 105
e 28 106
e 28 107
e 28 113
e 28 123
e 28 130
e 28 133
e 28 144
e 28 153
e 28 158
e 29 30
e 29 31
e 29 33
e 29 35
e 29 37
e 29 40
e 29 43
e 29 50
e 29 65
e 29 69
e 29 71
e 29 76
e 29 78
e 29 82
e 29 87
e 29 88
e 29 92
e 29 95
e 29 100
e 29 101
e 29 105
e 29 106
e 29 109
e 29 110
e 29 112
e 29 113
e 29 125
e 29 128
e 29 130
e 29 141
e 29 146
e 30 31
e 30 32
e 30 38
e 30 39
e 30 43
e 30 51
e 30 55
e 30 63
e 30 64
e 30 67
e 30 71
e 30 85
e 30 86
e 30 87
e 30 88
e 30 93
e 30 94
e 30 101
e 30 105
e 30 107
e 30 112
e 30 115
e 30 123
e 30 128
e 30 130
e 30 137
e 30 146
e 30 150
e 30 152
e 31 37
e 31 38
e 31 41
e 31 52
e 31 62
e 31 73
e 31 75
e 31 76
e 31 77
e 31 79
e 31 84
e 31 88
e 31 95
e 31 105
e 31 112
e 31 120
e 31 123
e 31 131
e 31 136
e 31 137
e 31 139
e 31 141
e 31 143
e 32 33
e 32 39
e 32 40
e 32 41
e 32 42
e 32 43
e 32 44
e 32 50
e 32 54
e 32 65
e 32 68
e 32 70
e 32 72
e 32 83
e 32 86
e 32 87
e 32 99
e 32 107
e 32 111
e 32 123
e 32 125
e 32 129
e 32 138
e 32 142
e 32 143
e 32 153
e 32 156
e 33 35
e 33 41
e 33 56
e 33 57
e 33 64
e 33 66
e 33 77
e 33 81
e 33 87
e 33 91
e 33 102
e 33 104
e 33 105
e 33 111
e 33 115
e 33 127
e 33 129
e 33 134
e 33 135
e 33 143
e 33 144
e 33 148
e 33 160
e 34 38
e 34 39
e 34 52
e 34 54
e 34 56
e 34 57
e 34 63
e 34 69
e 34 75
e 34 86
e 34 90
e 34 92
e 34 94
e 34 95
e 34 104
e 34 105
e 34 107
e 34 113
e 34 122
e 34 130
e 34 133
e 34 137
e 34 140
e 34 143
e 34 144
e 34 146
e 34 147
e 34 152
e 34 156
e 34 160
e 35 36
e 35 37
e 35 45
e 35 48
e 35 54
e 35 55
e 35 57
e 35 61
e 35 70
e 35 72
e 35 90
e 35 92
e 35 93
e 35 105
e 35 108
e 35 109
e 35 112
e 35 114
e 35 120
e 35 123
e 35 125
e 35 128
e 35 131
e 35 135
e 35 138
e 35 139
e 35 148
e 35 152
e 35 156
e 35 157
e 36 50
e 36 54
e 36 55
e 36 67
e 36 74
e 36 76
e 36 78
e 36 80
e 36 83
e 36 86
e 36 89
e 36 91
e 36 106
e 36 109
e 36 115
e 36 116
e 36 124
e 36 125
e 36 136
e 36 137
e 36 141
e 36 147
e 36 149
e 36 150
e 37 44
e 37 60
e 37 62
e 37 63
e 37 72
e 37 76
e 37 80
e 37 85
e 37 88
e 37 98
e 37 100
e 37 104
e 37 111
e 37 121
e 37 126
e 37 128
e 37 130
e 37 148
e 37 150
e 37 153
e 37 155
e 38 43
e 38 48
e 38 54
e 38 61
e 38 64
e 38 67
e 38 71
e 38 77
e 38 93
e 38 101
e 38 103
e 38 104
e 38 116
e 38 126
e 38 129
e 38 132
e 38 133
e 38 148
e 38 152
e 39 40
e 39 42
e 39 46
e 39 48
e 39 52
e 39 53
e 39 64
e 39 65
e 39 69
e 39 71
e 39 75
e 39 76
e 39 77
e 39 78
e 39 81
e 39 91
e 39 94
e 39 96
e 39 99
e 39 103
e 39 109
e 39 111
e 39 114
e 39 115
e 39 116
e 39 123
e 39 124
e 39 127
e 39 130
e 39 134
e 39 139
e 39 148
e 39 150
e 39 156
e 39 160
e 40 43
e 40 46
e 40 47
e 40 53
e 40 55
e 40 60
e 40 62
e 40 66
e 40 70
e 40 71
e 40 72
e 40 74
e 40 83
e 40 87
e 40 88
e 40 105
e 40 110
e 40 113
e 40 117
e 40 120
e 40 127
e 40 129
e 40 131
e 40 133
e 40 149
e 40 154
e 40 155
e 40 157
e 40 158
e 40 160
e 41 43
e 41 50
e 41 56
e 41 67
e 41 68
e 41 70
e 41 82
e 41 86
e 41 87
e 41 89
e 41 104
e 41 105
e 41 106
e 41 107
e 41 109
e 41 110
e 41 127
e 41 129
e 41 134
e 41 136
e 41 141
e 41 148
e 41 151
e 41 157
e 42 47
e 42 72
e 42 73
e 42 78
e 42 90
e 42 91
e 42 97
e 42 98
e 42 103
e 42 109
e 42 110
e 42 113
e 42 121
e 42 124
e 42 132
e 42 139
e 42 143
e 42 154
e 42 155
e 42 156
e 42 157
e 42 158
e 43 44
e 43 49
e 43 63
e 43 70
e 43 71
e 43 72
e 43 78
e 43 81
e 43 85
e 43 95
e 43 102
e 43 103
e 43 106
e 43 107
e 43 111
e 43 120
e 43 126
e 43 129
e 43 133
e 43 138
e 43 139
e 43 141
e 43 148
e 43 151
e 43 153
e 43 155
e 43 160
e 44 47
e 44 52
e 44 56
e 44 58
e 44 63
e 44 70
e 44 71
e 44 73
e 44 77
e 44 83
e 44 86
e 44 99
e 44 104
e 44 107
e 44 112
e 44 113
e 44 116
e 44 117
e 44 121
e 44 132
e 44 155
e 44 156
e 45 54
e 45 61
e 45 64
e 45 65
e 45 72
e 45 75
e 45 79
e 45 81
e 45 84
e 45 86
e 45 93
e 45 99
e 45 102
e 45 108
e 45 110
e 45 112
e 45 117
e 45 128
e 45 129
e 45 131
e 45 148
e 45 150
e 46 51
e 46 58
e 46 64
e 46 67
e 46 71
e 46 73
e 46 76
e 46 87
e 46 88
e 46 90
e 46 94
e 46 106
e 46 110
e 46 111
e 46 116
e 46 119
e 46 123
e 46 130
e 46 131
e 46 133
e 46 136
e 46 141
e 46 143
e 46 145
e 46 146
e 46 153
e 46 155
e 47 49
e 47 62
e 47 65
e 47 75
e 47 76
e 47 92
e 47 97
e 47 98
e 47 108
e 47 109
e 47 115
e 47 117
e 47 118
e 47 126
e 47 127
e 47 129
e 47 133
e 47 134
e 47 145
e 47 147
e 47 149
e 48 56
e 48 67
e 48 76
e 48 77
e 48 80
e 48 85
e 48 89
e 48 108
e 48 121
e 48 132
e 48 154
e 48 156
e 48 157
e 48 158
e 49 61
e 49 62
e 49 66
e 49 68
e 49 69
e 49 77
e 49 80
e 49 86
e 49 88
e 49 90
e 49 93
e 49 101
e 49 104
e 49 107
e 49 120
e 49 123
e 49 126
e 49 137
e 49 148
e 49 151
e 49 154
e 50 51
e 50 53
e 50 55
e 50 62
e 50 64
e 50 69
e 50 75
e 50 85
e 50 87
e 50 88
e 50 96
e 50 100
e 50 102
e 50 110
e 50 119
e 50 120
e 50 122
e 50 138
e 50 140
e 50 143
e 50 145
e 50 146
e 50 149
e 51 53
e 51 60
e 51 62
e 51 82
e 51 94
e 51 95
e 51 112
e 51 113
e 51 114
e 51 115
e 51 122
e 51 126
e 51 129
e 51 132
e 51 136
e 51 143
e 51 150
e 51 156
e 51 158
e 52 56
e 52 58
e 52 60
e 52 61
e 52 68
e 52 70
e 52 71
e 52 72
e 52 73
e 52 76
e 52 83
e 52 85
e 52 89
e 52 96
e 52 99
e 52 107
e 52 108
e 52 112
e 52 117
e 52 128
e 52 137
e 52 138
e 52 141
e 52 144
e 52 146
e 52 147
e 52 149
e 52 154
e 52 160
e 53 60
e 53 77
e 53 81
e 53 88
e 53 93
e 53 95
e 53 96
e 53 101
e 53 102
e 53 103
e 53 109
e 53 112
e 53 114
e 53 116
e 53 121
e 53 125
e 53 131
e 53 137
e 53 138
e 53 139
e 53 142
e 53 144
e 53 146
e 53 148
e 53 149
e 53 150
e 53 154
e 53 156
e 53 160
e 54 56
e 54 58
e 54 64
e 54 67
e 54 68
e 54 73
e 54 74
e 54 76
e 54 79
e 54 82
e 54 83
e 54 89
e 54 96
e 54 98
e 54 106
e 54 108
e 54 121
e 54 122
e 54 124
e 54 126
e 54 132
e 54 134
e 54 145
e 54 148
e 54 156
e 55 56
e 55 58
e 55 62
e 55 63
e 55 64
e 55 66
e 55 69
e 55 80
e 55 83
e 55 89
e 55 97
e 55 107
e 55 117
e 55 118
e 55 125
e 55 128
e 55 129
e 55 139
e 55 148
e 55 150
e 55 153
e 55 156
e 55 157
e 55 159
e 55 160
e 56 57
e 56 64
e 56 67
e 56 68
e 56 74
e 56 83
e 56 98
e 56 102
e 56 105
e 56 109
e 56 114
e 56 118
e 56 124
e 56 125
e 56 137
e 56 142
e 56 143
e 56 150
e 56 152
e 56 153
e 56 154
e 56 155
e 57 62
e 57 66
e 57 74
e 57 100
e 57 102
e 57 103
e 57 104
e 57 109
e 57 110
e 57 111
e 57 123
e 57 124
e 57 125
e 57 137
e 57 149
e 58 60
e 58 68
e 58 70
e 58 81
e 58 90
e 58 96
e 58 98
e 58 106
e 58 108
e 58 111
e 58 113
e 58 120
e 58 129
e 58 152
e 58 154
e 58 156
e 58 158
e 58 159
e 59 63
e 59 65
e 59 68
e 59 70
e 59 74
e 59 77
e 59 79
e 59 87
e 59 90
e 59 91
e 59 93
e 59 98
e 59 101
e 59 105
e 59 106
e 59 107
e 59 110
e 59 119
e 59 123
e 59 133
e 59 139
e 59 141
e 59 154
e 59 155
e 59 158
e 59 159
e 60 76
e 60 80
e 60 86
e 60 91
e 60 94
e 60 103
e 60 105
e 60 106
e 60 116
e 60 117
e 60 121
e 60 131
e 60 135
e 60 136
e 60 139
e 60 143
e 60 152
e 61 62
e 61 66
e 61 68
e 61 70
e 61 84
e 61 85
e 61 87
e 61 90
e 61 91
e 61 97
e 61 102
e 61 105
e 61 111
e 61 115
e 61 118
e 61 119
e 61 122
e 61 129
e 61 136
e 61 142
e 61 148
e 61 153
e 61 157
e 62 64
e 62 66
e 62 69
e 62 71
e 62 72
e 62 88
e 62 91
e 62 101
e 62 121
e 62 136
e 62 144
e 62 150
e 62 151
e 62 153
e 62 154
e 62 155
e 63 64
e 63 66
e 63 72
e 63 76
e 63 82
e 63 85
e 63 88
e 63 99
e 63 102
e 63 107
e 63 113
e 63 118
e 63 122
e 63 123
e 63 124
e 63 125
e 63 126
e 63 131
e 63 148
e 63 151
e 63 153
e 63 154
e 63 155
e 63 157
e 63 159
e 64 69
e 64 80
e 64 92
e 64 108
e 64 133
e 64 142
e 64 143
e 64 144
e 64 145
e 64 150
e 64 155
e 64 158
e 65 68
e 65 84
e 65 86
e 65 95
e 65 97
e 65 99
e 65 100
e 65 103
e 65 118
e 65 120
e 65 125
e 65 128
e 65 132
e 65 135
e 65 139
e 65 146
e 65 149
e 65 151
e 66 67
e 66 70
e 66 72
e 66 80
e 66 81
e 66 84
e 66 86
e 66 88
e 66 89
e 66 93
e 66 97
e 66 98
e 66 104
e 66 109
e 66 121
e 66 123
e 66 127
e 66 128
e 66 130
e 66 133
e 66 135
e 66 142
e 66 145
e 66 150
e 66 153
e 67 70
e 67 73
e 67 74
e 67 82
e 67 89
e 67 95
e 67 107
e 67 114
e 67 116
e 67 121
e 67 123
e 67 125
e 67 126
e 67 127
e 67 149
e 67 155
e 67 156
e 67 157
e 68 69
e 68 74
e 68 77
e 68 85
e 68 92
e 68 100
e 68 111
e 68 117
e 68 118
e 68 123
e 68 124
e 68 125
e 68 132
e 68 135
e 68 145
e 68 156
e 68 158
e 69 71
e 69 79
e 69 91
e 69 95
e 69 99
e 69 104
e 69 106
e 69 108
e 69 116
e 69 124
e 69 130
e 69 136
e 69 139
e 69 144
e 70 73
e 70 74
e 70 83
e 70 90
e 70 91
e 70 97
e 70 99
e 70 100
e 70 107
e 70 108
e 70 124
e 70 131
e 70 134
e 70 135
e 70 136
e 70 145
e 70 149
e 71 82
e 71 83
e 71 85
e 71 99
e 71 100
e 71 105
e 71 107
e 71 113
e 71 126
e 71 129
e 71 131
e 71 132
e 71 137
e 71 139
e 71 146
e 71 148
e 71 149
e 71 152
e 72 97
e 72 115
e 72 117
e 72 120
e 72 121
e 72 124
e 72 134
e 72 143
e 72 151
e 72 154
e 72 160
e 73 76
e 73 79
e 73 85
e 73 91
e 73 107
e 73 114
e 73 116
e 73 118
e 73 122
e 73 125
e 73 128
e 73 132
e 73 139
e 73 144
e 73 146
e 73 155
e 73 158
e 73 160
e 74 79
e 74 80
e 74 82
e 74 84
e 74 87
e 74 91
e 74 93
e 74 101
e 74 102
e 74 111
e 74 116
e 74 120
e 74 124
e 74 126
e 74 150
e 75 84
e 75 96
e 75 97
e 75 98
e 75 99
e 75 100
e 75 101
e 75 102
e 75 112
e 75 113
e 75 116
e 75 118
e 75 120
e 75 125
e 75 130
e 75 131
e 75 137
e 75 151
e 75 154
e 75 155
e 75 158
e 76 78
e 76 83
e 76 89
e 76 98
e 76 116
e 76 123
e 76 124
e 76 127
e 76 150
e 76 158
e 76 160
e 77 79
e 77 96
e 77 98
e 77 111
e 77 112
e 77 129
e 77 130
e 77 136
e 77 142
e 77 143
e 77 150
e 78 91
e 78 92
e 78 93
e 78 94
e 78 99
e 78 100
e 78 114
e 78 117
e 78 122
e 78 132
e 78 139
e 78 141
e 78 146
e 78 147
e 78 152
e 78 155
e 79 83
e 79 87
e 79 88
e 79 91
e 79 96
e 79 98
e 79 101
e 79 112
e 79 126
e 79 127
e 79 133
e 79 137
e 79 138
e 79 140
e 79 142
e 79 155
e 79 158
e 80 86
e 80 88
e 80 91
e 80 98
e 80 99
e 80 104
e 80 108
e 80 118
e 80 119
e 80 120
e 80 121
e 80 122
e 80 131
e 80 133
e 80 134
e 80 137
e 80 150
e 80 154
e 80 155
e 80 157
e 81 83
e 81 87
e 81 97
e 81 99
e 81 102
e 81 106
e 81 108
e 81 114
e 81 123
e 81 125
e 81 133
e 81 134
e 81 139
e 81 140
e 81 144
e 81 156
e 82 97
e 82 100
e 82 101
e 82 110
e 82 120
e 82 122
e 82 124
e 82 132
e 82 138
e 82 140
e 82 142
e 82 148
e 82 152
e 82 160
e 83 86
e 83 87
e 83 101
e 83 102
e 83 106
e 83 114
e 83 118
e 83 120
e 83 122
e 83 124
e 83 127
e 83 131
e 83 133
e 83 134
e 83 141
e 83 148
e 83 153
e 83 155
e 84 89
e 84 90
e 84 94
e 84 96
e 84 99
e 84 102
e 84 103
e 84 105
e 84 107
e 84 109
e 84 113
e 84 114
e 84 119
e 84 125
e 84 135
e 84 137
e 84 139
e 84 146
e 85 86
e 85 88
e 85 91
e 85 97
e 85 101
e 85 112
e 85 113
e 85 130
e 85 135
e 85 144
e 85 149
e 85 157
e 86 87
e 86 93
e 86 103
e 86 106
e 86 111
e 86 114
e 86 119
e 86 125
e 86 126
e 86 128
e 86 132
e 86 137
e 86 140
e 86 142
e 86 143
e 86 144
e 86 147
e 86 152
e 86 159
e 87 92
e 87 96
e 87 99
e 87 119
e 87 124
e 87 125
e 87 128
e 87 145
e 87 147
e 87 155
e 88 89
e 88 100
e 88 105
e 88 128
e 88 129
e 88 130
e 88 135
e 88 136
e 88 149
e 88 152
e 89 91
e 89 107
e 89 115
e 89 124
e 89 127
e 89 129
e 89 130
e 89 132
e 89 140
e 89 143
e 89 144
e 89 145
e 89 152
e 89 155
e 89 156
e 90 92
e 90 96
e 90 98
e 90 99
e 90 102
e 90 104
e 90 115
e 90 120
e 90 128
e 90 129
e 90 142
e 90 145
e 90 153
e 90 155
e 91 94
e 91 102
e 91 103
e 91 108
e 91 111
e 91 114
e 91 119
e 91 120
e 91 122
e 91 129
e 91 130
e 91 133
e 91 137
e 91 138
e 91 139
e 91 143
e 91 149
e 91 151
e 91 155
e 91 160
e 92 100
e 92 101
e 92 108
e 92 109
e 92 117
e 92 118
e 92 125
e 92 126
e 92 127
e 92 130
e 92 136
e 92 144
e 92 147
e 92 150
e 92 156
e 92 158
e 93 98
e 93 100
e 93 101
e 93 107
e 93 111
e 93 113
e 93 116
e 93 118
e 93 123
e 93 125
e 93 128
e 93 150
e 93 153
e 93 156
e 93 160
e 94 96
e 94 97
e 94 98
e 94 99
e 94 105
e 94 107
e 94 112
e 94 115
e 94 118
e 94 119
e 94 120
e 94 122
e 94 123
e 94 124
e 94 131
e 94 132
e 94 133
e 94 135
e 94 138
e 94 140
e 94 141
e 94 142
e 94 143
e 94 148
e 94 157
e 94 159
e 95 98
e 95 111
e 95 114
e 95 118
e 95 120
e 95 130
e 95 133
e 95 137
e 95 138
e 95 140
e 95 145
e 95 150
e 96 98
e 96 111
e 96 114
e 96 115
e 96 123
e 96 126
e 96 127
e 96 129
e 96 142
e 96 144
e 96 153
e 97 103
e 97 104
e 97 119
e 97 125
e 97 127
e 97 129
e 97 132
e 97 138
e 97 140
e 97 148
e 97 150
e 97 157
e 98 101
e 98 108
e 98 110
e 98 156
e 98 159
e 99 103
e 99 105
e 99 111
e 99 113
e 99 118
e 99 127
e 99 129
e 99 132
e 99 135
e 99 137
e 99 140
e 99 149
e 100 103
e 100 121
e 100 142
e 100 153
e 100 159
e 101 106
e 101 109
e 101 123
e 101 132
e 101 134
e 101 142
e 101 146
e 101 150
e 101 156
e 101 160
e 102 111
e 102 115
e 102 116
e 102 132
e 102 133
e 102 136
e 102 137
e 102 147
e 102 148
e 102 152
e 102 157
e 103 106
e 103 107
e 103 111
e 103 112
e 103 114
e 103 116
e 103 119
e 103 122
e 103 131
e 103 134
e 103 135
e 103 140
e 103 141
e 103 144
e 103 147
e 103 150
e 103 154
e 104 105
e 104 106
e 104 108
e 104 110
e 104 113
e 104 117
e 104 125
e 104 128
e 104 130
e 104 139
e 104 150
e 105 112
e 105 115
e 105 117
e 105 121
e 105 130
e 105 138
e 105 141
e 105 142
e 105 159
e 105 160
e 106 109
e 106 113
e 106 114
e 106 116
e 106 117
e 106 118
e 106 120
e 106 122
e 106 127
e 106 130
e 106 136
e 106 137
e 106 145
e 106 149
e 106 155
e 106 159
e 107 129
e 107 143
e 107 153
e 108 113
e 108 128
e 108 130
e 108 131
e 108 140
e 108 155
e 108 159
e 109 110
e 109 111
e 109 128
e 109 131
e 109 134
e 109 141
e 109 144
e 109 153
e 109 154
e 109 156
e 110 117
e 110 125
e 110 127
e 110 129
e 110 131
e 110 136
e 110 140
e 110 143
e 110 147
e 110 153
e 111 113
e 111 114
e 111 121
e 111 126
e 111 134
e 111 135
e 111 136
e 111 139
e 111 146
e 111 153
e 111 159
e 112 115
e 112 120
e 112 121
e 112 134
e 112 141
e 112 144
e 112 146
e 112 149
e 112 150
e 112 153
e 112 155
e 113 118
e 113 124
e 113 129
e 113 135
e 113 136
e 113 147
e 113 150
e 113 151
e 113 155
e 113 156
e 114 115
e 114 124
e 114 131
e 114 134
e 114 135
e 114 140
e 114 146
e 114 159
e 115 128
e 115 132
e 115 154
e 115 157
e 116 128
e 116 135
e 116 136
e 116 142
e 116 143
e 116 144
e 116 152
e 116 155
e 117 118
e 117 121
e 117 123
e 117 126
e 117 127
e 117 130
e 117 138
e 117 142
e 117 145
e 117 146
e 117 147
e 117 149
e 117 153
e 117 155
e 117 157
e 118 130
e 118 134
e 118 136
e 118 144
e 118 148
e 118 154
e 118 155
e 119 129
e 119 132
e 119 135
e 119 136
e 119 140
e 120 122
e 120 124
e 120 137
e 120 142
e 120 154
e 120 159
e 121 122
e 121 123
e 121 137
e 121 144
e 121 147
e 121 152
e 121 155
e 122 126
e 122 131
e 122 139
e 122 143
e 122 151
e 122 154
e 122 159
e 123 124
e 123 131
e 123 132
e 123 134
e 123 136
e 123 152
e 123 156
e 123 158
e 124 125
e 124 126
e 124 131
e 124 136
e 124 151
e 124 157
e 124 158
e 125 129
e 125 133
e 125 138
e 125 139
e 125 152
e 125 154
e 125 156
e 125 160
e 126 134
e 126 137
e 126 138
e 126 146
e 126 147
e 126 148
e 126 156
e 127 128
e 127 136
e 127 137
e 127 139
e 127 144
e 127 145
e 127 148
e 127 155
e 127 156
e 127 157
e 127 158
e 127 159
e 128 129
e 128 138
e 128 140
e 128 146
e 128 148
e 129 133
e 129 137
e 129 141
e 129 142
e 129 145
e 129 153
e 129 158
e 129 160
e 130 139
e 130 142
e 130 149
e 130 154
e 130 159
e 131 132
e 131 136
e 131 138
e 131 142
e 131 145
e 131 150
e 131 159
e 131 160
e 132 133
e 132 134
e 132 147
e 132 149
e 132 152
e 132 154
e 132 156
e 132 158
e 133 138
e 133 140
e 133 157
e 134 145
e 134 154
e 135 136
e 135 145
e 135 149
e 135 156
e 135 159
e 136 145
e 136 148
e 136 153
e 136 154
e 137 147
e 137 158
e 138 145
e 138 146
e 138 147
e 138 156
e 138 159
e 139 140
e 139 142
e 139 147
e 139 150
e 139 152
e 140 147
e 140 156
e 140 159
e 141 151
e 141 152
e 141 160
e 142 147
e 142 153
e 144 158
e 145 149
e 145 152
e 145 153
e 145 154
e 146 147
e 146 150
e 146 151
e 148 153
e 148 159
e 148 160
e 149 150
e 149 155
e 150 151
e 150 153
e 150 159
e 152 157
e 154 160
e 155 156
e 155 157
e 157 159
e 157 160
e 158 159
e 158 160
